90
1178
5
60
11
57
56
41
0 1
0 10
0 12
0 16
0 20
0 22
0 24
0 25
0 29
0 30
0 33
0 35
0 37
0 45
0 48
0 49
0 50
0 52
0 53
0 56
0 59
0 61
0 67
0 74
0 76
0 77
0 82
0 85
1 2
1 3
1 6
1 8
1 12
1 15
1 16
1 24
1 25
1 27
1 28
1 31
1 32
1 35
1 37
1 38
1 39
1 43
1 48
1 49
1 50
1 51
1 58
1 59
1 61
1 62
1 64
1 68
1 70
1 81
1 85
1 87
1 88
1 89
2 3
2 5
2 10
2 11
2 17
2 19
2 20
2 25
2 26
2 31
2 37
2 39
2 46
2 49
2 53
2 58
2 65
2 66
2 67
2 70
2 74
2 75
2 76
2 84
2 86
2 87
2 89
3 6
3 16
3 17
3 23
3 25
3 31
3 34
3 37
3 38
3 41
3 49
3 50
3 51
3 52
3 53
3 58
3 61
3 62
3 71
3 80
3 83
3 85
4 5
4 6
4 9
4 10
4 11
4 12
4 16
4 24
4 25
4 35
4 37
4 40
4 45
4 47
4 49
4 53
4 54
4 60
4 65
4 73
4 78
4 80
4 81
4 84
4 86
5 15
5 16
5 17
5 19
5 23
5 24
5 32
5 33
5 37
5 42
5 47
5 51
5 55
5 56
5 58
5 61
5 64
5 67
5 69
5 78
5 79
5 80
6 7
6 9
6 11
6 13
6 14
6 19
6 21
6 23
6 24
6 28
6 31
6 34
6 53
6 59
6 61
6 62
6 63
6 75
6 78
6 81
6 85
6 86
6 87
6 89
7 8
7 16
7 17
7 20
7 24
7 25
7 31
7 33
7 34
7 37
7 39
7 48
7 52
7 53
7 56
7 57
7 58
7 61
7 65
7 75
7 78
7 79
7 87
8 11
8 14
8 20
8 21
8 25
8 30
8 31
8 33
8 41
8 45
8 49
8 50
8 53
8 54
8 55
8 68
8 72
8 73
8 74
8 75
8 80
8 81
8 82
8 83
8 84
8 87
8 89
9 14
9 17
9 21
9 23
9 24
9 34
9 35
9 36
9 38
9 39
9 43
9 47
9 51
9 58
9 59
9 61
9 65
9 70
9 73
9 74
9 77
9 78
9 80
9 81
9 84
10 11
10 14
10 15
10 16
10 26
10 27
10 29
10 32
10 36
10 38
10 43
10 46
10 47
10 49
10 53
10 55
10 59
10 70
10 77
10 79
10 80
10 87
10 88
10 89
11 12
11 13
11 14
11 16
11 22
11 26
11 27
11 30
11 33
11 37
11 38
11 50
11 51
11 54
11 58
11 64
11 69
11 77
11 82
11 87
12 16
12 24
12 27
12 29
12 30
12 31
12 36
12 38
12 39
12 40
12 45
12 46
12 48
12 53
12 54
12 55
12 56
12 60
12 65
12 67
12 68
12 70
12 79
12 83
12 87
13 14
13 16
13 18
13 21
13 23
13 24
13 25
13 29
13 38
13 39
13 40
13 43
13 46
13 47
13 50
13 56
13 58
13 60
13 61
13 64
13 65
13 66
13 67
13 73
13 74
13 77
13 83
13 84
13 85
13 89
14 18
14 20
14 27
14 29
14 30
14 32
14 33
14 34
14 36
14 40
14 42
14 45
14 46
14 47
14 48
14 49
14 50
14 51
14 59
14 64
14 71
14 73
14 75
14 78
14 79
14 81
15 18
15 19
15 20
15 21
15 24
15 26
15 27
15 30
15 33
15 35
15 37
15 40
15 47
15 49
15 52
15 54
15 67
15 78
15 80
15 83
15 87
16 18
16 25
16 27
16 37
16 42
16 43
16 48
16 53
16 56
16 57
16 64
16 69
16 72
16 80
16 81
16 83
17 19
17 25
17 29
17 32
17 40
17 45
17 47
17 48
17 50
17 52
17 58
17 60
17 64
17 66
17 67
17 70
17 72
17 74
17 76
17 81
17 89
18 20
18 22
18 24
18 25
18 29
18 30
18 31
18 32
18 33
18 36
18 46
18 55
18 61
18 62
18 64
18 69
18 71
18 72
18 76
18 79
18 80
18 83
18 86
19 22
19 23
19 24
19 31
19 36
19 38
19 39
19 42
19 43
19 51
19 52
19 61
19 64
19 66
19 69
19 70
19 72
19 73
19 74
19 79
19 82
20 25
20 28
20 32
20 33
20 36
20 43
20 53
20 57
20 59
20 61
20 62
20 64
20 65
20 67
20 69
20 70
20 71
20 74
20 78
20 81
21 40
21 42
21 43
21 44
21 46
21 47
21 48
21 49
21 52
21 53
21 55
21 57
21 62
21 63
21 64
21 65
21 66
21 67
21 68
21 69
21 70
21 72
21 75
21 76
21 78
21 80
21 81
21 82
21 84
21 86
22 26
22 27
22 28
22 31
22 32
22 36
22 37
22 40
22 45
22 46
22 49
22 53
22 54
22 55
22 57
22 58
22 59
22 60
22 63
22 65
22 68
22 70
22 74
22 76
22 79
22 82
22 84
22 85
22 86
23 26
23 28
23 30
23 31
23 34
23 37
23 52
23 56
23 57
23 58
23 62
23 65
23 66
23 68
23 73
23 74
23 76
23 81
23 83
23 84
23 86
23 88
24 26
24 27
24 31
24 32
24 37
24 40
24 41
24 46
24 47
24 48
24 58
24 65
24 66
24 67
24 68
24 69
24 70
24 72
24 81
24 86
25 27
25 28
25 46
25 48
25 49
25 52
25 56
25 57
25 58
25 61
25 62
25 65
25 77
25 79
25 87
26 31
26 33
26 36
26 42
26 43
26 44
26 46
26 49
26 67
26 68
26 70
26 78
26 80
26 82
26 83
26 85
26 88
27 37
27 38
27 39
27 40
27 45
27 46
27 50
27 55
27 57
27 58
27 62
27 65
27 67
27 71
27 73
27 74
27 75
27 76
27 79
27 80
27 89
28 30
28 32
28 36
28 37
28 42
28 58
28 59
28 60
28 63
28 64
28 74
28 77
28 81
28 85
28 87
29 30
29 35
29 37
29 42
29 48
29 50
29 52
29 62
29 64
29 72
29 86
30 31
30 37
30 38
30 41
30 44
30 48
30 59
30 61
30 62
30 63
30 65
30 70
30 72
30 74
30 75
30 78
30 79
30 85
30 86
31 37
31 42
31 44
31 47
31 50
31 54
31 64
31 67
31 71
31 75
31 81
31 82
31 84
31 88
32 35
32 36
32 38
32 40
32 43
32 45
32 46
32 59
32 60
32 63
32 65
32 66
32 74
32 75
32 79
32 80
32 83
32 84
32 85
32 89
33 38
33 42
33 43
33 45
33 48
33 57
33 59
33 60
33 64
33 74
33 79
33 85
33 89
34 37
34 39
34 40
34 41
34 45
34 47
34 51
34 52
34 53
34 54
34 61
34 63
34 65
34 66
34 70
34 71
34 72
34 73
34 75
34 76
34 81
34 86
34 89
35 37
35 38
35 39
35 40
35 41
35 43
35 45
35 48
35 51
35 55
35 60
35 62
35 66
35 68
35 78
35 79
36 39
36 46
36 57
36 58
36 63
36 64
36 67
36 69
36 74
36 76
36 78
36 80
36 82
36 83
36 85
36 88
37 39
37 40
37 42
37 48
37 65
37 71
37 74
37 75
37 77
37 79
37 86
38 41
38 51
38 55
38 57
38 60
38 63
38 65
38 66
38 67
38 70
38 71
38 72
38 75
38 83
38 84
38 87
39 40
39 41
39 45
39 46
39 54
39 57
39 58
39 62
39 75
39 76
40 46
40 50
40 52
40 53
40 54
40 64
40 66
40 69
40 73
40 74
40 76
40 78
40 86
40 89
41 44
41 48
41 52
41 56
41 64
41 66
41 74
41 84
41 88
41 89
42 44
42 47
42 49
42 60
42 62
42 63
42 65
42 68
42 70
42 71
42 72
42 73
42 74
42 78
42 83
42 85
42 86
42 89
43 44
43 45
43 53
43 58
43 61
43 73
43 78
43 79
43 82
43 83
43 89
44 48
44 49
44 54
44 57
44 58
44 66
44 67
44 69
44 73
44 79
44 81
44 82
44 85
45 46
45 47
45 50
45 53
45 62
45 70
45 72
45 76
45 83
45 89
46 47
46 57
46 59
46 65
46 66
46 69
46 72
46 78
46 84
46 87
47 48
47 52
47 54
47 69
47 70
47 72
47 73
47 74
47 76
47 77
47 78
47 81
47 82
47 83
48 51
48 54
48 55
48 59
48 60
48 62
48 70
48 77
48 86
48 88
49 51
49 52
49 53
49 60
49 62
49 67
49 69
49 72
49 76
49 79
49 85
50 51
50 54
50 56
50 61
50 62
50 63
50 69
50 80
50 81
50 85
50 87
50 88
51 52
51 56
51 58
51 62
51 66
51 71
51 74
51 78
51 81
51 82
51 84
51 86
51 88
51 89
52 54
52 57
52 60
52 67
52 69
52 70
52 73
52 75
52 77
52 86
52 87
52 88
53 56
53 64
53 69
53 76
53 79
53 83
53 86
53 87
53 89
54 58
54 60
54 62
54 63
54 72
54 74
54 78
54 84
54 85
55 57
55 58
55 62
55 63
55 66
55 67
55 68
55 70
55 74
55 77
55 80
55 89
56 57
56 62
56 64
56 65
56 71
56 75
56 77
56 81
57 59
57 62
57 66
57 67
57 68
57 72
57 76
57 77
57 79
58 60
58 66
58 67
58 71
58 75
58 78
59 66
59 68
59 79
59 80
59 81
59 82
59 83
59 89
60 64
60 65
60 66
60 69
60 73
60 78
60 79
60 82
60 86
60 88
61 62
61 67
61 79
61 80
61 86
61 87
61 88
62 65
62 72
62 78
62 82
63 64
63 65
63 66
63 67
63 70
63 74
63 77
63 78
63 83
63 85
63 87
63 88
63 89
64 67
64 68
64 76
64 77
64 78
64 81
64 83
64 84
64 88
64 89
65 66
65 68
65 69
65 70
65 72
65 74
65 83
65 84
66 67
66 69
66 70
66 77
66 83
67 69
67 72
67 77
67 84
67 85
67 88
68 74
68 75
68 77
68 80
68 81
68 87
69 71
69 82
69 83
70 72
70 74
71 76
71 85
71 86
72 80
72 81
72 82
72 85
72 87
72 88
73 74
73 80
73 83
73 84
74 89
75 79
75 81
75 82
75 83
75 85
76 84
76 87
76 88
77 78
78 80
78 85
78 87
78 88
78 89
79 88
80 83
80 84
81 82
81 84
81 89
82 87
82 89
83 84
83 87
85 86
85 87
86 87
88 89
86 23 54 32 79 1 14 78 74 18 47 57 6 88 58 87 89 69
63 73 84 24 75 77 65 26 10 59 64 21 46 72 66 52 56 67
9 61 42 81 5 25 2 11 16 40 28 38 13 83 12 45 80 85
41 29 53 76 4 44 33 51 19 8 68 55 60 71 50 43 17 34
37 49 3 7 20 22 15 36 70 62 30 27 35 39 31 48 0 82
